
Gurobi 7.5.2 (mac64) logging started Wed Dec  6 10:06:27 2017

Academic license - for non-commercial use only

Gurobi Optimizer version 7.5.2 build v7.5.2rc1 (mac64)
Copyright (c) 2017, Gurobi Optimization, Inc.

Read LP format model from file contproblem.lp
Reading time = 0.01 seconds
: 367 rows, 376 columns, 3670 nonzeros
Optimize a model with 367 rows, 376 columns and 3670 nonzeros
Model has 367 quadratic objective terms
Coefficient statistics:
  Matrix range     [1e+00, 6e+02]
  Objective range  [0e+00, 0e+00]
  QObjective range [2e+00, 2e+00]
  Bounds range     [0e+00, 0e+00]
  RHS range        [2e+02, 2e+02]
Presolve removed 0 rows and 2 columns
Presolve time: 0.01s
Presolved: 367 rows, 374 columns, 2936 nonzeros
Presolved model has 367 quadratic objective terms
Ordering time: 0.00s

Barrier statistics:
 Dense cols : 7
 AA' NZ     : 2.569e+03
 Factor NZ  : 2.964e+03
 Factor Ops : 2.363e+04 (less than 1 second per iteration)
 Threads    : 1

                  Objective                Residual
Iter       Primal          Dual         Primal    Dual     Compl     Time
   0   9.17530752e+07 -9.17530752e+07  7.06e+03 0.00e+00  9.97e+05     0s
   1   2.58911316e+07 -2.59122844e+07  8.19e+01 0.00e+00  1.42e+05     0s
   2   8.57438978e+06 -8.60103791e+06  1.13e+01 0.00e+00  4.62e+04     0s
   3   2.13035431e+06 -2.13121295e+06  2.85e-03 0.00e+00  1.14e+04     0s
   4   4.40807767e+05 -4.30373034e+05  2.85e-09 8.37e-11  2.33e+03     0s
   5   7.48702896e+04 -5.19194977e+04  7.11e-15 2.33e-10  3.39e+02     0s
   6   5.57371913e+04 -2.48114322e+04  1.07e-14 7.37e-11  2.15e+02     0s
   7   3.97369125e+04  6.41822061e+03  3.55e-15 3.01e-10  8.91e+01     0s
   8   3.36974024e+04  2.65096965e+04  1.07e-14 3.16e-11  1.92e+01     0s
   9   3.34979642e+04  3.18723588e+04  7.11e-15 1.56e-10  4.35e+00     0s
  10   3.34257955e+04  3.31619539e+04  3.55e-15 9.17e-10  7.05e-01     0s
  11   3.34200565e+04  3.34193769e+04  7.11e-15 1.86e-09  1.82e-03     0s
  12   3.34200428e+04  3.34200421e+04  7.11e-15 9.68e-10  1.82e-06     0s
  13   3.34200427e+04  3.34200427e+04  7.11e-15 3.40e-10  1.82e-09     0s

Barrier solved model in 13 iterations and 0.01 seconds
Optimal objective 3.34200427e+04


Wrote result file 'max.sol'


Gurobi 7.5.2 (mac64) logging started Wed Dec  6 10:07:56 2017

Academic license - for non-commercial use only

Gurobi Optimizer version 7.5.2 build v7.5.2rc1 (mac64)
Copyright (c) 2017, Gurobi Optimization, Inc.

Read LP format model from file contproblem.lp
Reading time = 0.00 seconds
: 367 rows, 379 columns, 4771 nonzeros
Optimize a model with 367 rows, 379 columns and 4771 nonzeros
Model has 367 quadratic objective terms
Coefficient statistics:
  Matrix range     [1e+00, 6e+02]
  Objective range  [0e+00, 0e+00]
  QObjective range [2e+00, 2e+00]
  Bounds range     [0e+00, 0e+00]
  RHS range        [2e+02, 2e+02]
Presolve removed 0 rows and 2 columns
Presolve time: 0.00s
Presolved: 367 rows, 377 columns, 4037 nonzeros
Presolved model has 367 quadratic objective terms
Ordering time: 0.00s

Barrier statistics:
 Dense cols : 10
 AA' NZ     : 3.670e+03
 Factor NZ  : 4.092e+03
 Factor Ops : 4.479e+04 (less than 1 second per iteration)
 Threads    : 1

                  Objective                Residual
Iter       Primal          Dual         Primal    Dual     Compl     Time
   0   9.17530343e+07 -9.17530343e+07  1.01e+04 0.00e+00  9.97e+05     0s
   1   2.57895254e+07 -2.58109980e+07  9.97e+01 0.00e+00  1.40e+05     0s
   2   5.91466209e+06 -5.92200836e+06  1.20e+01 0.00e+00  3.16e+04     0s
   3   1.41897647e+06 -1.41166303e+06  3.42e-01 0.00e+00  7.51e+03     0s
   4   2.31768639e+05 -2.15007991e+05  3.42e-07 0.00e+00  1.19e+03     0s
   5   6.12338569e+04 -4.20853771e+04  1.16e-08 0.00e+00  2.74e+02     0s
   6   4.44218831e+04 -1.35090119e+04  3.53e-09 0.00e+00  1.54e+02     0s
   7   2.89197878e+04  6.95814452e+03  1.18e-09 0.00e+00  5.83e+01     0s
   8   2.77755500e+04  1.76576709e+04  2.72e-10 7.49e-10  2.68e+01     0s
   9   2.64276199e+04  2.60490005e+04  1.34e-12 1.02e-09  1.00e+00     0s
  10   2.64082204e+04  2.64013057e+04  1.78e-14 3.00e-10  1.83e-02     0s
  11   2.64070870e+04  2.64068562e+04  1.07e-14 2.48e-09  6.12e-04     0s
  12   2.64069791e+04  2.64069773e+04  1.07e-14 7.28e-12  4.92e-06     0s
  13   2.64069776e+04  2.64069776e+04  1.07e-14 5.22e-10  4.92e-09     0s

Barrier solved model in 13 iterations and 0.01 seconds
Optimal objective 2.64069776e+04


Wrote result file 'max.sol'


Gurobi 7.5.2 (mac64) logging started Wed Dec  6 10:30:01 2017

Academic license - for non-commercial use only

Gurobi Optimizer version 7.5.2 build v7.5.2rc1 (mac64)
Copyright (c) 2017, Gurobi Optimization, Inc.

Read LP format model from file contproblem.lp
Reading time = 0.00 seconds
: 367 rows, 379 columns, 4771 nonzeros
Optimize a model with 367 rows, 379 columns and 4771 nonzeros
Model has 367 quadratic objective terms
Coefficient statistics:
  Matrix range     [1e+00, 6e+02]
  Objective range  [0e+00, 0e+00]
  QObjective range [2e+00, 2e+00]
  Bounds range     [0e+00, 0e+00]
  RHS range        [2e+02, 2e+02]
Presolve removed 0 rows and 2 columns
Presolve time: 0.00s
Presolved: 367 rows, 377 columns, 4037 nonzeros
Presolved model has 367 quadratic objective terms
Ordering time: 0.00s

Barrier statistics:
 Dense cols : 10
 AA' NZ     : 3.670e+03
 Factor NZ  : 4.092e+03
 Factor Ops : 4.479e+04 (less than 1 second per iteration)
 Threads    : 1

                  Objective                Residual
Iter       Primal          Dual         Primal    Dual     Compl     Time
   0   9.17530343e+07 -9.17530343e+07  1.01e+04 0.00e+00  9.97e+05     0s
   1   2.57895254e+07 -2.58109980e+07  9.97e+01 0.00e+00  1.40e+05     0s
   2   5.91466209e+06 -5.92200836e+06  1.20e+01 0.00e+00  3.16e+04     0s
   3   1.41897647e+06 -1.41166303e+06  3.42e-01 0.00e+00  7.51e+03     0s
   4   2.31768639e+05 -2.15007991e+05  3.42e-07 0.00e+00  1.19e+03     0s
   5   6.12338569e+04 -4.20853771e+04  1.16e-08 0.00e+00  2.74e+02     0s
   6   4.44218831e+04 -1.35090119e+04  3.53e-09 0.00e+00  1.54e+02     0s
   7   2.89197878e+04  6.95814452e+03  1.18e-09 0.00e+00  5.83e+01     0s
   8   2.77755500e+04  1.76576709e+04  2.72e-10 7.49e-10  2.68e+01     0s
   9   2.64276199e+04  2.60490005e+04  1.34e-12 1.02e-09  1.00e+00     0s
  10   2.64082204e+04  2.64013057e+04  1.78e-14 3.00e-10  1.83e-02     0s
  11   2.64070870e+04  2.64068562e+04  1.07e-14 2.48e-09  6.12e-04     0s
  12   2.64069791e+04  2.64069773e+04  1.07e-14 7.28e-12  4.92e-06     0s
  13   2.64069776e+04  2.64069776e+04  1.07e-14 5.22e-10  4.92e-09     0s

Barrier solved model in 13 iterations and 0.01 seconds
Optimal objective 2.64069776e+04


Wrote result file 'max.sol'


Gurobi 7.5.2 (mac64) logging started Wed Dec  6 10:31:05 2017

Academic license - for non-commercial use only

Gurobi Optimizer version 7.5.2 build v7.5.2rc1 (mac64)
Copyright (c) 2017, Gurobi Optimization, Inc.

Read LP format model from file contproblem.lp
Reading time = 0.01 seconds
: 367 rows, 376 columns, 3670 nonzeros
Optimize a model with 367 rows, 376 columns and 3670 nonzeros
Model has 367 quadratic objective terms
Coefficient statistics:
  Matrix range     [1e+00, 6e+02]
  Objective range  [0e+00, 0e+00]
  QObjective range [2e+00, 2e+00]
  Bounds range     [0e+00, 0e+00]
  RHS range        [2e+02, 2e+02]
Presolve removed 0 rows and 2 columns
Presolve time: 0.01s
Presolved: 367 rows, 374 columns, 2936 nonzeros
Presolved model has 367 quadratic objective terms
Ordering time: 0.00s

Barrier statistics:
 Dense cols : 7
 AA' NZ     : 2.569e+03
 Factor NZ  : 2.964e+03
 Factor Ops : 2.363e+04 (less than 1 second per iteration)
 Threads    : 1

                  Objective                Residual
Iter       Primal          Dual         Primal    Dual     Compl     Time
   0   9.17530752e+07 -9.17530752e+07  7.06e+03 0.00e+00  9.97e+05     0s
   1   2.58911316e+07 -2.59122844e+07  8.19e+01 0.00e+00  1.42e+05     0s
   2   8.57438978e+06 -8.60103791e+06  1.13e+01 0.00e+00  4.62e+04     0s
   3   2.13035431e+06 -2.13121295e+06  2.85e-03 0.00e+00  1.14e+04     0s
   4   4.40807767e+05 -4.30373034e+05  2.85e-09 8.37e-11  2.33e+03     0s
   5   7.48702896e+04 -5.19194977e+04  7.11e-15 2.33e-10  3.39e+02     0s
   6   5.57371913e+04 -2.48114322e+04  1.07e-14 7.37e-11  2.15e+02     0s
   7   3.97369125e+04  6.41822061e+03  3.55e-15 3.01e-10  8.91e+01     0s
   8   3.36974024e+04  2.65096965e+04  1.07e-14 3.16e-11  1.92e+01     0s
   9   3.34979642e+04  3.18723588e+04  7.11e-15 1.56e-10  4.35e+00     0s
  10   3.34257955e+04  3.31619539e+04  3.55e-15 9.17e-10  7.05e-01     0s
  11   3.34200565e+04  3.34193769e+04  7.11e-15 1.86e-09  1.82e-03     0s
  12   3.34200428e+04  3.34200421e+04  7.11e-15 9.68e-10  1.82e-06     0s
  13   3.34200427e+04  3.34200427e+04  7.11e-15 3.40e-10  1.82e-09     0s

Barrier solved model in 13 iterations and 0.02 seconds
Optimal objective 3.34200427e+04


Wrote result file 'max.sol'


Gurobi 7.5.2 (mac64) logging started Wed Dec  6 11:17:07 2017

Academic license - for non-commercial use only

Gurobi Optimizer version 7.5.2 build v7.5.2rc1 (mac64)
Copyright (c) 2017, Gurobi Optimization, Inc.

Read LP format model from file contproblem.lp
Reading time = 0.01 seconds
: 367 rows, 376 columns, 3670 nonzeros
Optimize a model with 367 rows, 376 columns and 3670 nonzeros
Model has 367 quadratic objective terms
Coefficient statistics:
  Matrix range     [1e+00, 6e+02]
  Objective range  [0e+00, 0e+00]
  QObjective range [2e+00, 2e+00]
  Bounds range     [0e+00, 0e+00]
  RHS range        [2e+02, 2e+02]
Presolve removed 0 rows and 2 columns
Presolve time: 0.01s
Presolved: 367 rows, 374 columns, 2936 nonzeros
Presolved model has 367 quadratic objective terms
Ordering time: 0.00s

Barrier statistics:
 Dense cols : 7
 AA' NZ     : 2.569e+03
 Factor NZ  : 2.964e+03
 Factor Ops : 2.363e+04 (less than 1 second per iteration)
 Threads    : 1

                  Objective                Residual
Iter       Primal          Dual         Primal    Dual     Compl     Time
   0   9.17530752e+07 -9.17530752e+07  7.06e+03 0.00e+00  9.97e+05     0s
   1   2.58911316e+07 -2.59122844e+07  8.19e+01 0.00e+00  1.42e+05     0s
   2   8.57438978e+06 -8.60103791e+06  1.13e+01 0.00e+00  4.62e+04     0s
   3   2.13035431e+06 -2.13121295e+06  2.85e-03 0.00e+00  1.14e+04     0s
   4   4.40807767e+05 -4.30373034e+05  2.85e-09 8.37e-11  2.33e+03     0s
   5   7.48702896e+04 -5.19194977e+04  7.11e-15 2.33e-10  3.39e+02     0s
   6   5.57371913e+04 -2.48114322e+04  1.07e-14 7.37e-11  2.15e+02     0s
   7   3.97369125e+04  6.41822061e+03  3.55e-15 3.01e-10  8.91e+01     0s
   8   3.36974024e+04  2.65096965e+04  1.07e-14 3.16e-11  1.92e+01     0s
   9   3.34979642e+04  3.18723588e+04  7.11e-15 1.56e-10  4.35e+00     0s
  10   3.34257955e+04  3.31619539e+04  3.55e-15 9.17e-10  7.05e-01     0s
  11   3.34200565e+04  3.34193769e+04  7.11e-15 1.86e-09  1.82e-03     0s
  12   3.34200428e+04  3.34200421e+04  7.11e-15 9.68e-10  1.82e-06     0s
  13   3.34200427e+04  3.34200427e+04  7.11e-15 3.40e-10  1.82e-09     0s

Barrier solved model in 13 iterations and 0.02 seconds
Optimal objective 3.34200427e+04


Wrote result file 'max.sol'


Gurobi 7.5.2 (mac64) logging started Wed Dec  6 11:17:50 2017

Academic license - for non-commercial use only

Gurobi Optimizer version 7.5.2 build v7.5.2rc1 (mac64)
Copyright (c) 2017, Gurobi Optimization, Inc.

Read LP format model from file contproblem.lp
Reading time = 0.00 seconds
: 367 rows, 379 columns, 4771 nonzeros
Optimize a model with 367 rows, 379 columns and 4771 nonzeros
Model has 367 quadratic objective terms
Coefficient statistics:
  Matrix range     [1e+00, 6e+02]
  Objective range  [0e+00, 0e+00]
  QObjective range [2e+00, 2e+00]
  Bounds range     [0e+00, 0e+00]
  RHS range        [2e+02, 2e+02]
Presolve removed 0 rows and 2 columns
Presolve time: 0.00s
Presolved: 367 rows, 377 columns, 4037 nonzeros
Presolved model has 367 quadratic objective terms
Ordering time: 0.00s

Barrier statistics:
 Dense cols : 10
 AA' NZ     : 3.670e+03
 Factor NZ  : 4.092e+03
 Factor Ops : 4.479e+04 (less than 1 second per iteration)
 Threads    : 1

                  Objective                Residual
Iter       Primal          Dual         Primal    Dual     Compl     Time
   0   9.17530343e+07 -9.17530343e+07  1.01e+04 0.00e+00  9.97e+05     0s
   1   2.57895254e+07 -2.58109980e+07  9.97e+01 0.00e+00  1.40e+05     0s
   2   5.91466209e+06 -5.92200836e+06  1.20e+01 0.00e+00  3.16e+04     0s
   3   1.41897647e+06 -1.41166303e+06  3.42e-01 0.00e+00  7.51e+03     0s
   4   2.31768639e+05 -2.15007991e+05  3.42e-07 0.00e+00  1.19e+03     0s
   5   6.12338569e+04 -4.20853771e+04  1.16e-08 0.00e+00  2.74e+02     0s
   6   4.44218831e+04 -1.35090119e+04  3.53e-09 0.00e+00  1.54e+02     0s
   7   2.89197878e+04  6.95814452e+03  1.18e-09 0.00e+00  5.83e+01     0s
   8   2.77755500e+04  1.76576709e+04  2.72e-10 7.49e-10  2.68e+01     0s
   9   2.64276199e+04  2.60490005e+04  1.34e-12 1.02e-09  1.00e+00     0s
  10   2.64082204e+04  2.64013057e+04  1.78e-14 3.00e-10  1.83e-02     0s
  11   2.64070870e+04  2.64068562e+04  1.07e-14 2.48e-09  6.12e-04     0s
  12   2.64069791e+04  2.64069773e+04  1.07e-14 7.28e-12  4.92e-06     0s
  13   2.64069776e+04  2.64069776e+04  1.07e-14 5.22e-10  4.92e-09     0s

Barrier solved model in 13 iterations and 0.01 seconds
Optimal objective 2.64069776e+04


Wrote result file 'max.sol'


Gurobi 7.5.2 (linux64) logging started Mon Jan 22 09:15:23 2018

Academic license - for non-commercial use only

Gurobi Optimizer version 7.5.2 build v7.5.2rc1 (linux64)
Copyright (c) 2017, Gurobi Optimization, Inc.

Read LP format model from file contproblem.lp
Reading time = 0.00 seconds
: 377 rows, 389 columns, 4901 nonzeros
Optimize a model with 377 rows, 389 columns and 4901 nonzeros
Model has 377 quadratic objective terms
Coefficient statistics:
  Matrix range     [1e+00, 6e+02]
  Objective range  [0e+00, 0e+00]
  QObjective range [2e+00, 2e+00]
  Bounds range     [0e+00, 0e+00]
  RHS range        [7e+01, 2e+02]
Presolve removed 0 rows and 2 columns
Presolve time: 0.00s
Presolved: 377 rows, 387 columns, 4147 nonzeros
Presolved model has 377 quadratic objective terms
Ordering time: 0.00s

Barrier statistics:
 Dense cols : 10
 AA' NZ     : 3.770e+03
 Factor NZ  : 4.202e+03
 Factor Ops : 4.600e+04 (less than 1 second per iteration)
 Threads    : 1

                  Objective                Residual
Iter       Primal          Dual         Primal    Dual     Compl     Time
   0   9.42505913e+07 -9.42505913e+07  1.01e+04 0.00e+00  9.99e+05     0s
   1   2.74847008e+07 -2.74991972e+07  2.77e+02 0.00e+00  1.50e+05     0s
   2   9.63821110e+06 -9.66847447e+06  5.85e+01 0.00e+00  5.10e+04     0s
   3   2.22024053e+06 -2.25173411e+06  6.22e+00 0.00e+00  1.16e+04     0s
   4   6.02241282e+05 -6.09757281e+05  2.72e-01 0.00e+00  3.14e+03     0s
   5   1.84953539e+05 -1.66713647e+05  2.54e-02 0.00e+00  9.09e+02     0s
   6   6.00864403e+04 -4.29903280e+04  2.54e-08 0.00e+00  2.66e+02     0s
   7   3.20427752e+04 -6.30119466e+03  7.69e-09 0.00e+00  9.91e+01     0s
   8   3.26355202e+04  1.82965145e+04  8.88e-15 2.54e-10  3.71e+01     0s
   9   2.96385573e+04  2.88064109e+04  7.11e-15 7.43e-11  2.15e+00     0s
  10   2.96016551e+04  2.95637415e+04  7.11e-15 4.66e-10  9.80e-02     0s
  11   2.95985626e+04  2.95981730e+04  7.11e-15 4.75e-09  1.01e-03     0s
  12   2.95985336e+04  2.95985332e+04  7.11e-15 4.73e-11  1.01e-06     0s
  13   2.95985335e+04  2.95985335e+04  7.11e-15 1.82e-11  1.01e-09     0s

Barrier solved model in 13 iterations and 0.01 seconds
Optimal objective 2.95985335e+04


Wrote result file 'max.sol'

